Minimize
  0.0476190476190476 y_0 + 0.0476190476190476 y_1 + 0.0416666666666667 y_2
   + 0.0714285714285714 y_3 + 0.1428571428571428 y_4 + 0.25 y_5
   + 0.1428571428571428 y_6 + 0.1 y_7 + 0.0769230769230769 y_8
   + 0.1428571428571428 y_9 + 0.0526315789473684 y_10
   + 0.0588235294117647 y_11 + 0.1428571428571428 y_12
   + 0.0555555555555556 y_13 + 0.05 y_14 + 0.0625 y_15
   + 0.0909090909090909 y_16 + 0.0769230769230769 y_17
   + 0.1666666666666667 y_18 + 0.0666666666666667 y_19 + 0.05 y_20
   + 0.0588235294117647 y_21 + 0.1666666666666667 y_22 + 0.05 y_23
   + 0.0666666666666667 y_24 + 0.0416666666666667 y_25
   + 0.0434782608695652 y_26 + 0.0588235294117647 y_27
   + 0.0454545454545455 y_28 + 0.125 y_29 + 0.0555555555555556 y_30
   + 0.04 y_31 + 0.0588235294117647 y_32 + 0.037037037037037 y_33
   + 0.25 y_34 + 0.05 y_35 + 0.1111111111111111 y_36
   + 0.0555555555555556 y_37 + 0.0526315789473684 y_38
   + 0.0588235294117647 y_39 + 0.0434782608695652 y_40
   + 0.1666666666666667 y_41 + 0.05 y_42 + 0.05 y_43
   + 0.0476190476190476 y_44 + 0.0476190476190476 y_45
   + 0.0833333333333333 y_46 + 0.0454545454545455 y_47 + y_48 + 0.0625 y_49
   + 0.0588235294117647 y_50 + 0.0909090909090909 y_51 + 0.04 y_52
   + 0.0476190476190476 y_53 + 0.0454545454545455 y_54
   + 0.0434782608695652 y_55 + 0.05 y_56 + 0.0526315789473684 y_57
   + 0.0769230769230769 y_58 + 0.05 y_59 + 0.0833333333333333 y_60
   + 0.125 y_61 + 0.0555555555555556 y_62 + 0.0434782608695652 y_63
   + 0.0833333333333333 y_64 + 0.0769230769230769 y_65
   + 0.0434782608695652 y_66 + 0.0526315789473684 y_67
   + 0.0555555555555556 y_68 + 0.0666666666666667 y_69
   + 0.0555555555555556 y_70 + 0.0666666666666667 y_71
   + 0.0714285714285714 y_72 + 0.0909090909090909 y_73
   + 0.0454545454545455 y_74 + 0.0434782608695652 y_75
   + 0.0588235294117647 y_76 + 0.0625 y_77 + 0.0588235294117647 y_78
   + 0.0625 y_79 + 0.0769230769230769 y_80 + 0.0416666666666667 y_81
   + 0.05 y_82 + 0.05 y_83 + 0.1 y_84 + 0.25 y_85 + 0.0434782608695652 y_86
   + 0.0476190476190476 y_87 + 0.25 y_88 + 0.0714285714285714 y_89
   + 0.0833333333333333 y_90 + 0.0625 y_91 + 0.0434782608695652 y_92
   + 0.0357142857142857 y_93 + 0.0769230769230769 y_94
   + 0.0588235294117647 y_95 + 0.1428571428571428 y_96
   + 0.0454545454545455 y_97 + 0.0476190476190476 y_98
   + 0.1428571428571428 y_99 + 0.0666666666666667 y_100
   + 0.0714285714285714 y_101 + 0.0434782608695652 y_102
   + 0.0476190476190476 y_103 + 0.0588235294117647 y_104
   + 0.0434782608695652 y_105 + 0.0555555555555556 y_106
   + 0.0555555555555556 y_107 + 0.0454545454545455 y_108
   + 0.0769230769230769 y_109 + 0.0909090909090909 y_110
   + 0.0526315789473684 y_111 + 0.0625 y_112 + 0.0588235294117647 y_113
   + 0.0769230769230769 y_114 + 0.0833333333333333 y_115
   + 0.0769230769230769 y_116 + 0.0526315789473684 y_117
   + 0.3333333333333333 y_118 + 0.0625 y_119 + 0.0666666666666667 y_120
   + 0.25 y_121 + 0.2 y_122 + 0.0714285714285714 y_123
   + 0.0555555555555556 y_124 + 0.0666666666666667 y_125
   + 0.0476190476190476 y_126 + 0.0833333333333333 y_127
   + 0.1428571428571428 y_128 + 0.0833333333333333 y_129
   + 0.0714285714285714 y_130 + 0.0588235294117647 y_131
   + 0.0526315789473684 y_132 + 0.0769230769230769 y_133
   + 0.0555555555555556 y_134 + 0.0588235294117647 y_135 + 0.25 y_136
   + 0.0588235294117647 y_137 + 0.05 y_138 + 0.1428571428571428 y_139
   + 0.1428571428571428 y_140 + 0.0625 y_141 + 0.0833333333333333 y_142
   + 0.0434782608695652 y_143 + 0.0625 y_144 + 0.0555555555555556 y_145
   + 0.05 y_146 + 0.0588235294117647 y_147 + 0.0769230769230769 y_148
   + 0.0434782608695652 y_149 + 0.0588235294117647 y_150 + 0.2 y_151
   + 0.2 y_152 + 0.0434782608695652 y_153 + 0.0434782608695652 y_154
   + 0.0833333333333333 y_155 + 0.1 y_156 + 0.0625 y_157
   + 0.0384615384615385 y_158 + 0.125 y_159 + 0.0714285714285714 y_160
   + 0.0833333333333333 y_161 + 0.0434782608695652 y_162
   + 0.0909090909090909 y_163 + 0.25 y_164 + 0.0769230769230769 y_165
   + 0.0625 y_166 + 0.05 y_167 + 0.1111111111111111 y_168
   + 0.0476190476190476 y_169 + 0.0714285714285714 y_170
   + 0.0909090909090909 y_171 + 0.0476190476190476 y_172
   + 0.0476190476190476 y_173 + 0.0909090909090909 y_174 + 0.0625 y_175
   + 0.0588235294117647 y_176 + 0.0416666666666667 y_177
   + 0.0454545454545455 y_178 + 0.0833333333333333 y_179 + 0.2 y_180
   + 0.0588235294117647 y_181 + 0.05 y_182 + 0.125 y_183
   + 0.1428571428571428 y_184 + 0.0769230769230769 y_185
   + 0.0555555555555556 y_186 + 0.0384615384615385 y_187 + 0.1 y_188
   + 0.1 y_189 + 0.0625 y_190 + 0.05 y_191 + 0.0666666666666667 y_192
   + 0.1428571428571428 y_193 + 0.0714285714285714 y_194
   + 0.0476190476190476 y_195 + 0.2 y_196 + 0.1111111111111111 y_197
   + 0.0714285714285714 y_198 + 0.0588235294117647 y_199
   - 16.98972378348033 Constant
Subject To
 c_0: y_167 = 1
 c_1_0: y_0 + y_98 >= 1
 c_1_1: y_1 + y_45 + y_47 + y_53 + y_83 >= 1
 c_1_2: y_2 + y_26 + y_40 + y_63 + y_75 + y_102 + y_143 + y_153 >= 1
 c_1_3: y_3 + y_19 + y_65 + y_72 + y_77 + y_123 + y_130 + y_175 + y_185
   + y_192 + y_198 >= 1
 c_1_4: y_4 + y_6 + y_9 + y_12 + y_22 + y_29 + y_41 + y_96 + y_140 + y_168
   + y_183 + y_184 + y_197 >= 1
 c_1_5: y_5 + y_34 + y_85 + y_88 + y_118 + y_121 + y_122 + y_180 + y_196
   >= 1
 c_1_6: y_4 + y_6 + y_9 + y_12 + y_18 + y_22 + y_29 + y_41 + y_96 + y_140
   + y_183 + y_184 + y_197 >= 1
 c_1_7: y_7 + y_36 + y_73 + y_156 + y_163 + y_168 >= 1
 c_1_8: y_8 + y_58 + y_60 + y_73 + y_94 + y_109 + y_161 + y_170 >= 1
 c_1_9: y_4 + y_6 + y_9 + y_12 + y_18 + y_22 + y_29 + y_41 + y_96 + y_140
   + y_183 + y_184 + y_197 >= 1
 c_1_10: y_10 + y_14 + y_38 + y_57 + y_67 + y_111 + y_124 + y_191 >= 1
 c_1_11: y_11 + y_124 + y_141 + y_144 + y_166 >= 1
 c_1_12: y_4 + y_6 + y_9 + y_12 + y_22 + y_29 + y_41 + y_96 + y_184 >= 1
 c_1_13: y_13 + y_15 + y_21 + y_30 + y_62 + y_76 + y_78 + y_107 + y_131
   + y_135 + y_137 >= 1
 c_1_14: y_10 + y_14 + y_38 + y_57 + y_67 + y_111 + y_191 >= 1
 c_1_15: y_13 + y_15 + y_21 + y_27 + y_79 + y_120 + y_131 + y_137 >= 1
 c_1_16: y_16 + y_64 + y_90 + y_129 + y_179 >= 1
 c_1_17: y_17 + y_46 + y_133 + y_160 + y_174 + y_194 >= 1
 c_1_18: y_6 + y_9 + y_18 + y_96 + y_128 + y_140 + y_151 + y_152 + y_184
   >= 1
 c_1_19: y_3 + y_19 + y_49 + y_77 + y_130 + y_147 + y_175 + y_198 >= 1
 c_1_20: y_20 + y_28 + y_30 + y_35 + y_44 + y_126 + y_172 + y_182 >= 1
 c_1_21: y_13 + y_15 + y_21 + y_27 + y_79 + y_131 + y_137 >= 1
 c_1_22: y_4 + y_6 + y_9 + y_12 + y_22 + y_29 + y_41 + y_96 + y_136 + y_140
   + y_184 >= 1
 c_1_23: y_23 + y_98 + y_132 + y_134 + y_146 >= 1
 c_1_24: y_24 + y_27 + y_79 + y_91 + y_120 + y_133 + y_157 + y_160 >= 1
 c_1_25: y_25 + y_31 + y_52 + y_54 + y_63 + y_105 + y_108 + y_143 + y_149
   + y_154 >= 1
 c_1_26: y_2 + y_26 + y_31 + y_40 + y_63 + y_75 + y_102 + y_143 + y_153
   >= 1
 c_1_27: y_15 + y_21 + y_24 + y_27 + y_79 + y_91 + y_131 + y_137 + y_157
   >= 1
 c_1_28: y_20 + y_28 + y_44 + y_54 + y_55 + y_126 + y_149 + y_154 + y_162
   + y_172 + y_178 >= 1
 c_1_29: y_4 + y_6 + y_9 + y_12 + y_22 + y_29 + y_36 + y_96 + y_184 >= 1
 c_1_30: y_13 + y_20 + y_30 + y_62 + y_76 + y_78 + y_107 + y_135 >= 1
 c_1_31: y_25 + y_26 + y_31 + y_63 + y_143 >= 1
 c_1_32: y_32 + y_37 + y_50 + y_71 + y_95 + y_113 + y_117 >= 1
 c_1_33: y_33 + y_52 + y_93 + y_187 >= 1
 c_1_34: y_5 + y_34 + y_88 + y_118 + y_121 + y_122 + y_196 >= 1
 c_1_35: y_20 + y_35 + y_44 + y_54 + y_126 + y_182 >= 1
 c_1_36: y_7 + y_29 + y_36 + y_73 + y_156 + y_163 + y_168 >= 1
 c_1_37: y_32 + y_37 + y_43 + y_111 + y_117 + y_138 >= 1
 c_1_38: y_10 + y_14 + y_38 + y_57 + y_124 + y_191 >= 1
 c_1_39: y_39 + y_49 + y_77 + y_119 + y_132 + y_134 + y_147 + y_150 + y_175
   + y_176 >= 1
 c_1_40: y_2 + y_26 + y_40 + y_63 + y_75 + y_102 + y_143 + y_153 >= 1
 c_1_41: y_4 + y_6 + y_9 + y_12 + y_22 + y_41 + y_96 + y_136 + y_184 >= 1
 c_1_42: y_42 + y_56 + y_173 + y_195 >= 1
 c_1_43: y_37 + y_43 + y_59 + y_82 + y_103 + y_117 + y_138 >= 1
 c_1_44: y_20 + y_28 + y_35 + y_44 + y_54 + y_108 + y_126 + y_149 + y_154
   + y_182 >= 1
 c_1_45: y_1 + y_45 + y_47 + y_83 + y_87 + y_169 >= 1
 c_1_46: y_17 + y_46 + y_110 + y_174 + y_194 >= 1
 c_1_47: y_1 + y_45 + y_47 + y_87 + y_92 >= 1
 c_1_48: y_48 >= 1
 c_1_49: y_19 + y_39 + y_49 + y_77 + y_112 + y_130 + y_147 + y_150 + y_175
   >= 1
 c_1_50: y_32 + y_50 + y_71 + y_91 + y_95 + y_113 + y_199 >= 1
 c_1_51: y_51 + y_161 + y_188 >= 1
 c_1_52: y_25 + y_33 + y_52 + y_187 >= 1
 c_1_53: y_1 + y_53 + y_162 + y_167 + y_172 + y_178 >= 1
 c_1_54: y_25 + y_28 + y_35 + y_44 + y_54 + y_105 + y_108 + y_126 + y_149
   + y_154 + y_182 >= 1
 c_1_55: y_28 + y_55 + y_86 + y_154 + y_162 + y_172 + y_177 + y_178 >= 1
 c_1_56: y_42 + y_56 + y_173 + y_195 >= 1
 c_1_57: y_10 + y_14 + y_38 + y_57 + y_67 + y_111 + y_124 + y_191 >= 1
 c_1_58: y_8 + y_58 + y_60 + y_80 + y_94 + y_101 + y_109 + y_116 + y_148
   + y_170 >= 1
 c_1_59: y_43 + y_59 + y_82 + y_103 + y_173 >= 1
 c_1_60: y_8 + y_58 + y_60 + y_73 + y_94 + y_109 + y_161 + y_163 >= 1
 c_1_61: y_61 + y_99 + y_139 + y_159 + y_189 + y_193 >= 1
 c_1_62: y_13 + y_30 + y_62 + y_76 + y_78 + y_104 + y_107 + y_135 >= 1
 c_1_63: y_2 + y_25 + y_26 + y_31 + y_40 + y_63 + y_75 + y_105 + y_108
   + y_143 + y_153 >= 1
 c_1_64: y_16 + y_64 + y_65 + y_90 + y_123 + y_129 + y_165 + y_179 + y_185
   >= 1
 c_1_65: y_3 + y_64 + y_65 + y_69 + y_72 + y_90 + y_123 + y_129 + y_165
   + y_179 + y_185 >= 1
 c_1_66: y_66 + y_81 + y_86 + y_92 + y_162 + y_177 + y_178 >= 1
 c_1_67: y_10 + y_14 + y_57 + y_67 + y_111 + y_138 >= 1
 c_1_68: y_68 + y_83 + y_104 + y_181 >= 1
 c_1_69: y_65 + y_69 + y_72 + y_89 + y_123 + y_165 + y_192 >= 1
 c_1_70: y_70 + y_106 + y_112 + y_145 + y_150 >= 1
 c_1_71: y_32 + y_50 + y_71 + y_95 + y_100 + y_101 + y_166 + y_170 >= 1
 c_1_72: y_3 + y_65 + y_69 + y_72 + y_89 + y_119 + y_123 + y_165 + y_175
   + y_185 + y_192 >= 1
 c_1_73: y_7 + y_8 + y_36 + y_60 + y_73 + y_94 + y_115 + y_163 + y_168
   >= 1
 c_1_74: y_74 + y_102 + y_153 + y_173 + y_195 >= 1
 c_1_75: y_2 + y_26 + y_40 + y_63 + y_75 + y_102 + y_143 + y_153 >= 1
 c_1_76: y_13 + y_30 + y_62 + y_76 + y_78 + y_104 + y_107 + y_135 >= 1
 c_1_77: y_3 + y_19 + y_39 + y_49 + y_77 + y_119 + y_147 + y_175 + y_192
   >= 1
 c_1_78: y_13 + y_30 + y_62 + y_76 + y_78 + y_104 + y_107 + y_135 >= 1
 c_1_79: y_15 + y_21 + y_24 + y_27 + y_79 + y_120 + y_131 + y_137 + y_157
   >= 1
 c_1_80: y_58 + y_80 + y_94 + y_101 + y_109 + y_115 + y_116 + y_127 + y_148
   + y_163 >= 1
 c_1_81: y_66 + y_81 + y_86 + y_92 + y_162 + y_177 + y_178 >= 1
 c_1_82: y_43 + y_59 + y_82 + y_103 + y_117 >= 1
 c_1_83: y_1 + y_45 + y_68 + y_83 >= 1
 c_1_84: y_84 + y_110 + y_188 + y_197 >= 1
 c_1_85: y_5 + y_85 + y_88 + y_118 + y_121 + y_122 + y_151 + y_152 + y_164
   + y_180 >= 1
 c_1_86: y_55 + y_66 + y_81 + y_86 + y_92 + y_162 + y_177 + y_178 >= 1
 c_1_87: y_45 + y_47 + y_87 + y_97 + y_169 >= 1
 c_1_88: y_5 + y_34 + y_85 + y_88 + y_118 + y_121 + y_122 + y_151 + y_152
   + y_180 + y_196 >= 1
 c_1_89: y_69 + y_72 + y_89 + y_165 + y_190 >= 1
 c_1_90: y_16 + y_64 + y_65 + y_90 + y_129 + y_165 + y_179 >= 1
 c_1_91: y_24 + y_27 + y_50 + y_91 + y_113 + y_157 + y_199 >= 1
 c_1_92: y_47 + y_66 + y_81 + y_86 + y_92 >= 1
 c_1_93: y_33 + y_93 >= 1
 c_1_94: y_8 + y_58 + y_60 + y_73 + y_80 + y_94 + y_101 + y_109 + y_115
   + y_116 + y_148 + y_163 >= 1
 c_1_95: y_32 + y_50 + y_71 + y_95 + y_113 + y_199 >= 1
 c_1_96: y_4 + y_6 + y_9 + y_12 + y_18 + y_22 + y_29 + y_41 + y_96 + y_140
   + y_183 + y_184 + y_197 >= 1
 c_1_97: y_87 + y_97 + y_169 >= 1
 c_1_98: y_0 + y_23 + y_98 + y_146 >= 1
 c_1_99: y_61 + y_99 + y_122 + y_139 + y_159 + y_180 + y_193 + y_196 >= 1
 c_1_100: y_71 + y_100 + y_101 + y_109 + y_144 + y_166 + y_170 >= 1
 c_1_101: y_58 + y_71 + y_80 + y_94 + y_100 + y_101 + y_109 + y_116 + y_144
   + y_148 + y_166 >= 1
 c_1_102: y_2 + y_26 + y_40 + y_74 + y_75 + y_102 + y_143 + y_153 + y_195
   >= 1
 c_1_103: y_43 + y_59 + y_82 + y_103 >= 1
 c_1_104: y_62 + y_68 + y_76 + y_78 + y_104 + y_135 + y_181 + y_190 >= 1
 c_1_105: y_25 + y_54 + y_63 + y_105 + y_108 + y_143 + y_149 + y_154 >= 1
 c_1_106: y_70 + y_106 + y_145 + y_150 >= 1
 c_1_107: y_13 + y_30 + y_62 + y_76 + y_78 + y_107 + y_135 >= 1
 c_1_108: y_25 + y_44 + y_54 + y_63 + y_105 + y_108 + y_126 + y_149 + y_154
   >= 1
 c_1_109: y_8 + y_58 + y_60 + y_80 + y_94 + y_100 + y_101 + y_109 + y_115
   + y_116 + y_148 + y_170 >= 1
 c_1_110: y_46 + y_84 + y_110 + y_174 + y_188 >= 1
 c_1_111: y_10 + y_14 + y_37 + y_57 + y_67 + y_111 + y_138 >= 1
 c_1_112: y_49 + y_70 + y_112 + y_130 + y_150 >= 1
 c_1_113: y_32 + y_50 + y_91 + y_95 + y_113 + y_199 >= 1
 c_1_114: y_114 + y_130 + y_142 + y_198 >= 1
 c_1_115: y_73 + y_80 + y_94 + y_109 + y_115 + y_116 + y_127 + y_148
   + y_155 + y_163 + y_171 >= 1
 c_1_116: y_58 + y_80 + y_94 + y_101 + y_109 + y_115 + y_116 + y_127
   + y_148 + y_163 >= 1
 c_1_117: y_32 + y_37 + y_43 + y_82 + y_117 + y_138 >= 1
 c_1_118: y_5 + y_34 + y_85 + y_88 + y_118 + y_121 + y_122 + y_196 >= 1
 c_1_119: y_39 + y_72 + y_77 + y_119 + y_134 + y_175 + y_176 + y_192 >= 1
 c_1_120: y_15 + y_24 + y_79 + y_120 + y_160 + y_194 >= 1
 c_1_121: y_5 + y_34 + y_85 + y_88 + y_118 + y_121 + y_122 + y_180 + y_196
   >= 1
 c_1_122: y_5 + y_34 + y_85 + y_88 + y_99 + y_118 + y_121 + y_122 + y_139
   + y_180 + y_196 >= 1
 c_1_123: y_3 + y_64 + y_65 + y_69 + y_72 + y_123 + y_165 + y_179 + y_185
   + y_192 >= 1
 c_1_124: y_10 + y_11 + y_38 + y_57 + y_124 + y_141 + y_191 >= 1
 c_1_125: y_125 + y_141 + y_144 + y_148 >= 1
 c_1_126: y_20 + y_28 + y_35 + y_44 + y_54 + y_108 + y_126 + y_149 + y_154
   + y_172 + y_182 >= 1
 c_1_127: y_80 + y_115 + y_116 + y_127 + y_148 + y_155 + y_156 + y_163
   + y_171 >= 1
 c_1_128: y_18 + y_128 + y_151 + y_152 + y_180 >= 1
 c_1_129: y_16 + y_64 + y_65 + y_90 + y_129 + y_165 + y_179 >= 1
 c_1_130: y_3 + y_19 + y_49 + y_112 + y_114 + y_130 + y_198 >= 1
 c_1_131: y_13 + y_15 + y_21 + y_27 + y_79 + y_131 + y_137 >= 1
 c_1_132: y_23 + y_39 + y_132 + y_134 + y_146 + y_147 >= 1
 c_1_133: y_17 + y_24 + y_133 + y_160 + y_161 >= 1
 c_1_134: y_23 + y_39 + y_119 + y_132 + y_134 + y_147 + y_176 + y_186 >= 1
 c_1_135: y_13 + y_30 + y_62 + y_76 + y_78 + y_104 + y_107 + y_135 >= 1
 c_1_136: y_22 + y_41 + y_136 + y_164 >= 1
 c_1_137: y_13 + y_15 + y_21 + y_27 + y_79 + y_131 + y_137 >= 1
 c_1_138: y_37 + y_43 + y_67 + y_111 + y_117 + y_138 >= 1
 c_1_139: y_61 + y_99 + y_122 + y_139 + y_159 + y_180 + y_193 + y_196 >= 1
 c_1_140: y_4 + y_6 + y_9 + y_18 + y_22 + y_96 + y_140 + y_183 + y_184
   + y_197 >= 1
 c_1_141: y_11 + y_124 + y_125 + y_141 + y_144 + y_166 >= 1
 c_1_142: y_114 + y_142 >= 1
 c_1_143: y_2 + y_25 + y_26 + y_31 + y_40 + y_63 + y_75 + y_102 + y_105
   + y_143 + y_153 >= 1
 c_1_144: y_11 + y_100 + y_101 + y_125 + y_141 + y_144 + y_166 >= 1
 c_1_145: y_70 + y_106 + y_145 + y_147 + y_150 >= 1
 c_1_146: y_23 + y_98 + y_132 + y_146 >= 1
 c_1_147: y_19 + y_39 + y_49 + y_77 + y_132 + y_134 + y_145 + y_147 + y_150
   + y_175 >= 1
 c_1_148: y_58 + y_80 + y_94 + y_101 + y_109 + y_115 + y_116 + y_125
   + y_127 + y_148 + y_155 + y_163 >= 1
 c_1_149: y_25 + y_28 + y_44 + y_54 + y_105 + y_108 + y_126 + y_149 + y_154
   >= 1
 c_1_150: y_39 + y_49 + y_70 + y_106 + y_112 + y_145 + y_147 + y_150 >= 1
 c_1_151: y_18 + y_85 + y_88 + y_128 + y_151 + y_152 + y_164 + y_180 >= 1
 c_1_152: y_18 + y_85 + y_88 + y_128 + y_151 + y_152 + y_164 + y_180 >= 1
 c_1_153: y_2 + y_26 + y_40 + y_63 + y_74 + y_75 + y_102 + y_143 + y_153
   >= 1
 c_1_154: y_25 + y_28 + y_44 + y_54 + y_55 + y_105 + y_108 + y_126 + y_149
   + y_154 >= 1
 c_1_155: y_115 + y_127 + y_148 + y_155 + y_156 + y_171 >= 1
 c_1_156: y_7 + y_36 + y_127 + y_155 + y_156 + y_163 + y_171 >= 1
 c_1_157: y_24 + y_27 + y_79 + y_91 + y_157 + y_199 >= 1
 c_1_158: y_158 + y_187 >= 1
 c_1_159: y_61 + y_99 + y_139 + y_159 + y_193 >= 1
 c_1_160: y_17 + y_24 + y_120 + y_133 + y_160 >= 1
 c_1_161: y_8 + y_51 + y_60 + y_133 + y_161 >= 1
 c_1_162: y_28 + y_53 + y_55 + y_66 + y_81 + y_86 + y_162 + y_172 + y_177
   + y_178 >= 1
 c_1_163: y_7 + y_36 + y_60 + y_73 + y_80 + y_94 + y_115 + y_116 + y_127
   + y_148 + y_156 + y_163 + y_171 >= 1
 c_1_164: y_85 + y_136 + y_151 + y_152 + y_164 >= 1
 c_1_165: y_64 + y_65 + y_69 + y_72 + y_89 + y_90 + y_123 + y_129 + y_165
   + y_179 >= 1
 c_1_166: y_11 + y_71 + y_100 + y_101 + y_141 + y_144 + y_166 >= 1
 c_1_167: y_53 + y_167 + y_172 + y_178 >= 1
 c_1_168: y_4 + y_7 + y_36 + y_73 + y_168 + y_183 + y_197 >= 1
 c_1_169: y_45 + y_87 + y_97 + y_169 >= 1
 c_1_170: y_8 + y_58 + y_71 + y_100 + y_109 + y_170 >= 1
 c_1_171: y_115 + y_127 + y_155 + y_156 + y_163 + y_171 >= 1
 c_1_172: y_20 + y_28 + y_53 + y_55 + y_126 + y_162 + y_167 + y_172 + y_178
   >= 1
 c_1_173: y_42 + y_56 + y_59 + y_74 + y_173 + y_195 >= 1
 c_1_174: y_17 + y_46 + y_110 + y_174 + y_188 >= 1
 c_1_175: y_3 + y_19 + y_39 + y_49 + y_72 + y_77 + y_119 + y_147 + y_175
   + y_176 + y_192 >= 1
 c_1_176: y_39 + y_119 + y_134 + y_175 + y_176 + y_186 >= 1
 c_1_177: y_55 + y_66 + y_81 + y_86 + y_162 + y_177 + y_178 >= 1
 c_1_178: y_28 + y_53 + y_55 + y_66 + y_81 + y_86 + y_162 + y_167 + y_172
   + y_177 + y_178 >= 1
 c_1_179: y_16 + y_64 + y_65 + y_90 + y_123 + y_129 + y_165 + y_179 + y_185
   >= 1
 c_1_180: y_5 + y_85 + y_88 + y_99 + y_121 + y_122 + y_128 + y_139 + y_151
   + y_152 + y_180 + y_196 >= 1
 c_1_181: y_68 + y_104 + y_181 + y_190 >= 1
 c_1_182: y_20 + y_35 + y_44 + y_54 + y_126 + y_182 >= 1
 c_1_183: y_4 + y_6 + y_9 + y_96 + y_140 + y_168 + y_183 + y_184 + y_197
   >= 1
 c_1_184: y_4 + y_6 + y_9 + y_12 + y_18 + y_22 + y_29 + y_41 + y_96 + y_140
   + y_183 + y_184 + y_197 >= 1
 c_1_185: y_3 + y_64 + y_65 + y_72 + y_123 + y_179 + y_185 + y_192 + y_198
   >= 1
 c_1_186: y_134 + y_176 + y_186 >= 1
 c_1_187: y_33 + y_52 + y_158 + y_187 >= 1
 c_1_188: y_51 + y_84 + y_110 + y_174 + y_188 >= 1
 c_1_189: y_61 + y_189 >= 1
 c_1_190: y_89 + y_104 + y_181 + y_190 >= 1
 c_1_191: y_10 + y_14 + y_38 + y_57 + y_124 + y_191 >= 1
 c_1_192: y_3 + y_69 + y_72 + y_77 + y_119 + y_123 + y_175 + y_185 + y_192
   >= 1
 c_1_193: y_61 + y_99 + y_139 + y_159 + y_193 + y_196 >= 1
 c_1_194: y_17 + y_46 + y_120 + y_194 >= 1
 c_1_195: y_42 + y_56 + y_74 + y_102 + y_173 + y_195 >= 1
 c_1_196: y_5 + y_34 + y_88 + y_99 + y_118 + y_121 + y_122 + y_139 + y_180
   + y_193 + y_196 >= 1
 c_1_197: y_4 + y_6 + y_9 + y_84 + y_96 + y_140 + y_168 + y_183 + y_184
   + y_197 >= 1
 c_1_198: y_3 + y_19 + y_114 + y_130 + y_185 + y_198 >= 1
 c_1_199: y_50 + y_91 + y_95 + y_113 + y_157 + y_199 >= 1
Bounds
 Constant = 1
Binaries
 y_0 y_1 y_2 y_3 y_4 y_5 y_6 y_7 y_8 y_9 y_10 y_11 y_12 y_13 y_14 y_15 y_16
 y_17 y_18 y_19 y_20 y_21 y_22 y_23 y_24 y_25 y_26 y_27 y_28 y_29 y_30 y_31
 y_32 y_33 y_34 y_35 y_36 y_37 y_38 y_39 y_40 y_41 y_42 y_43 y_44 y_45 y_46
 y_47 y_48 y_49 y_50 y_51 y_52 y_53 y_54 y_55 y_56 y_57 y_58 y_59 y_60 y_61
 y_62 y_63 y_64 y_65 y_66 y_67 y_68 y_69 y_70 y_71 y_72 y_73 y_74 y_75 y_76
 y_77 y_78 y_79 y_80 y_81 y_82 y_83 y_84 y_85 y_86 y_87 y_88 y_89 y_90 y_91
 y_92 y_93 y_94 y_95 y_96 y_97 y_98 y_99 y_100 y_101 y_102 y_103 y_104
 y_105 y_106 y_107 y_108 y_109 y_110 y_111 y_112 y_113 y_114 y_115 y_116
 y_117 y_118 y_119 y_120 y_121 y_122 y_123 y_124 y_125 y_126 y_127 y_128
 y_129 y_130 y_131 y_132 y_133 y_134 y_135 y_136 y_137 y_138 y_139 y_140
 y_141 y_142 y_143 y_144 y_145 y_146 y_147 y_148 y_149 y_150 y_151 y_152
 y_153 y_154 y_155 y_156 y_157 y_158 y_159 y_160 y_161 y_162 y_163 y_164
 y_165 y_166 y_167 y_168 y_169 y_170 y_171 y_172 y_173 y_174 y_175 y_176
 y_177 y_178 y_179 y_180 y_181 y_182 y_183 y_184 y_185 y_186 y_187 y_188
 y_189 y_190 y_191 y_192 y_193 y_194 y_195 y_196 y_197 y_198 y_199
End
